clasp version 2.1.3
Reading from asp/inst/pb_200_10.lp
Solving...
UNSATISFIABLE

Models      : 0     
Time        : 4.070s (Solving: 2.86s 1st Model: 0.00s Unsat: 2.86s)
CPU Time    : 3.910s
Choices     : 57495
Conflicts   : 1746
Restarts    : 5      (Average: 349.00 Last: 425)

Atoms       : 174529 (Original: 9951 Auxiliary: 164578)
Rules       : 355740 (1: 15926/354499 2: 1041/0 3: 200/0)
Bodies      : 326252
Equivalences: 356796 (Atom=Atom: 3684 Body=Body: 3800 Other: 349312)
Tight       : Yes

Variables   : 320176 (Eliminated:    0 Frozen:    0)
Constraints : 929128 (Binary: 67.8% Ternary: 32.0% Other:  0.2%)
Lemmas      : 1745   (Binary:  7.4% Ternary: 12.6% Other: 80.0%)
  Conflict  : 1745   (Average Length: 18.8) 
  Loop      : 0      (Average Length: 0.0) 
  Other     : 0      (Average Length: 0.0)
  Deleted   : 0     
